

(declare-const x Real)
(poly/factor (+ (^ x 4.) (* (- 20.) (^ x 2.)) 36.))

(poly/factor (+ (^ x 6.) (- 27.)))

(simplify (+ (^ 8. (/ 1. 2.)) (^ 2. (/ 1. 2.))))
(simplify (^ (^ 27. (/ 1. 2.)) (/ 1. 3.)))
